0 0 0 0
0 1 2 0
0 2 2 0
0 3 1 0
0 4 2 8
0 5 1 6
0 6 0 8
0 7 1 10
0 8 1 8
0 9 2 8
0 10 0 16
0 11 2 8
0 12 1 19
0 13 2 15
0 14 1 23
0 15 2 18
0 16 1 25
0 17 2 16
0 18 2 10
0 19 1 10
0 20 0 24
0 21 2 25
0 22 2 25
0 23 2 25
0 24 2 25
0 25 0 34
0 26 0 34
0 27 1 25
0 28 0 37
0 29 0 38
0 30 1 34
0 31 0 39
